c ! encoding i-pc 250
p cnf 445 727
-251 0
38 -252 0
188 -253 0
247 -254 0
251 -255 0
251 -256 0
251 -257 0
-146 -258 0
228 -258 0
259 0
260 -261 0
261 -262 0
-228 -262 0
258 262 -263 0
138 -264 0
163 -264 0
-220 -264 0
263 -266 0
264 -266 0
265 -266 0
266 -268 0
267 -268 0
268 -269 0
200 -269 0
-146 -270 0
270 -271 0
228 -271 0
260 -273 0
272 -273 0
273 -274 0
-228 -274 0
271 274 -275 0
275 -277 0
125 -277 0
276 -277 0
277 -278 0
220 -278 0
138 -279 0
163 -279 0
263 -280 0
279 -280 0
265 -280 0
280 -281 0
-220 -281 0
278 281 -282 0
282 -283 0
-75 -283 0
283 -284 0
-200 -284 0
269 284 -285 0
21 -286 0
45 -286 0
56 -286 0
-112 -286 0
-113 -286 0
-145 -286 0
-149 -286 0
-167 -286 0
177 -286 0
287 -293 0
288 -293 0
289 -293 0
290 -293 0
291 -293 0
292 -293 0
285 -294 0
293 -294 0
251 -300 0
-206 -304 0
175 -308 0
251 -309 0
251 -310 0
251 -311 0
21 -312 0
45 -312 0
56 -312 0
-112 -312 0
-113 -312 0
-145 -312 0
-149 -312 0
-167 -312 0
177 -312 0
-206 -312 0
291 -313 0
288 -313 0
290 -313 0
285 -314 0
312 -314 0
313 -314 0
314 -315 0
292 -315 0
315 -316 0
221 -316 0
-75 -317 0
125 -317 0
-200 -317 0
275 -318 0
317 -318 0
318 -319 0
220 -319 0
267 -320 0
320 -321 0
200 -321 0
-75 -322 0
-200 -322 0
321 322 -323 0
263 -324 0
323 -324 0
163 -324 0
324 -325 0
265 -325 0
325 -326 0
-220 -326 0
319 326 -327 0
149 -328 0
113 -328 0
329 -330 0
330 -331 0
-113 -331 0
328 331 -332 0
332 -333 0
143 -333 0
-113 -334 0
-149 -334 0
334 -335 0
-143 -335 0
333 335 -336 0
-177 -337 0
96 -337 0
338 -339 0
339 -340 0
-96 -340 0
337 340 -341 0
342 -343 0
343 -344 0
65 -344 0
21 -345 0
-65 -345 0
344 345 -346 0
-56 -347 0
138 -347 0
-145 -347 0
167 -347 0
-206 -347 0
327 -348 0
336 -348 0
341 -348 0
346 -348 0
347 -348 0
348 -349 0
112 -349 0
138 -351 0
350 -351 0
351 -352 0
167 -352 0
56 -353 0
276 -353 0
353 -354 0
-167 -354 0
352 354 -355 0
275 -356 0
355 -356 0
317 -356 0
356 -357 0
220 -357 0
350 -358 0
358 -359 0
167 -359 0
56 -360 0
-167 -360 0
359 360 -361 0
263 -362 0
361 -362 0
323 -362 0
279 -362 0
265 -362 0
362 -363 0
-220 -363 0
357 363 -364 0
-143 -366 0
365 -366 0
366 -367 0
145 -367 0
288 -368 0
368 -369 0
-145 -369 0
367 369 -370 0
370 -371 0
-65 -371 0
371 -373 0
372 -373 0
373 -374 0
206 -374 0
-113 -375 0
-145 -375 0
375 -376 0
288 -376 0
376 -377 0
290 -377 0
377 -378 0
-206 -378 0
374 378 -379 0
21 -380 0
-149 -380 0
177 -380 0
364 -381 0
379 -381 0
380 -381 0
381 -382 0
-112 -382 0
349 382 -383 0
383 -384 0
45 -384 0
384 -385 0
291 -385 0
385 -386 0
76 -386 0
342 -388 0
387 -388 0
388 -389 0
65 -389 0
21 -390 0
45 -390 0
390 -391 0
-65 -391 0
389 391 -392 0
327 -393 0
336 -393 0
341 -393 0
392 -393 0
347 -393 0
393 -394 0
112 -394 0
45 -395 0
-65 -395 0
370 -396 0
395 -396 0
396 -397 0
372 -397 0
397 -398 0
206 -398 0
387 -399 0
399 -400 0
65 -400 0
45 -401 0
-65 -401 0
400 401 -402 0
402 -403 0
375 -403 0
288 -403 0
403 -404 0
-206 -404 0
398 404 -405 0
364 -406 0
405 -406 0
380 -406 0
406 -407 0
-112 -407 0
394 407 -408 0
408 -409 0
-27 -409 0
409 -410 0
-76 -410 0
386 410 -411 0
411 -412 0
-185 -412 0
412 -413 0
-221 -413 0
287 -416 0
289 -416 0
414 -417 0
416 -417 0
-175 -429 0
430 -431 0
251 -432 0
251 -435 0
-247 -439 0
-188 -442 0
-38 -444 0
1 0
-2 0
-3 0
4 0
-5 0
-6 0
7 0
9 0
10 0
-11 0
-12 0
-13 0
-14 0
-15 0
16 0
17 0
-18 0
19 0
20 0
22 0
23 0
-24 0
-25 0
26 0
-28 0
29 0
30 0
31 0
-32 0
33 0
-34 0
35 0
-36 0
37 0
39 0
-40 0
41 0
42 0
-43 0
44 0
-46 0
-47 0
48 0
-49 0
50 0
51 0
52 0
53 0
54 0
55 0
57 0
-58 0
-59 0
-60 0
-61 0
-62 0
-63 0
64 0
-66 0
-68 0
-69 0
-70 0
71 0
-72 0
-73 0
74 0
-77 0
78 0
-79 0
80 0
-81 0
82 0
-83 0
84 0
-85 0
-86 0
87 0
-88 0
-89 0
-90 0
-91 0
-92 0
93 0
94 0
95 0
-97 0
-98 0
99 0
100 0
-101 0
102 0
-103 0
104 0
-106 0
-107 0
108 0
109 0
110 0
-111 0
114 0
115 0
116 0
117 0
118 0
119 0
-120 0
-121 0
122 0
-123 0
124 0
126 0
128 0
129 0
130 0
-131 0
-132 0
-133 0
-134 0
-135 0
-136 0
137 0
-139 0
140 0
141 0
-142 0
-144 0
-147 0
148 0
-150 0
151 0
152 0
-153 0
-154 0
155 0
156 0
-157 0
158 0
-159 0
-160 0
-161 0
-162 0
-164 0
-165 0
166 0
-168 0
169 0
170 0
-171 0
172 0
173 0
174 0
176 0
178 0
179 0
180 0
-181 0
-183 0
-184 0
-186 0
-187 0
-189 0
190 0
-192 0
-193 0
194 0
195 0
196 0
197 0
198 0
-199 0
-202 0
-203 0
-204 0
-205 0
-207 0
-208 0
-209 0
-210 0
212 0
-213 0
-214 0
215 0
216 0
217 0
218 0
-219 0
-222 0
-223 0
-225 0
-226 0
-227 0
-229 0
-230 0
-231 0
232 0
-234 0
-235 0
236 0
-237 0
-238 0
239 0
240 0
-241 0
-242 0
-243 0
244 0
-245 0
246 0
-248 0
249 0
250 0
-444 445 0
-442 443 0
-440 441 0
-438 439 0
-9 437 0
-434 436 0
-428 429 0
-427 428 0
-423 425 0
-422 423 0
-421 422 0
-419 421 0
-417 418 0
-415 417 0
-414 417 0
-410 411 0
-408 409 0
-405 406 0
-399 400 0
-395 396 0
-393 394 0
-392 393 0
-391 392 0
-390 391 0
-443 444 0
-389 392 0
-386 411 0
-383 384 0
-382 383 0
-381 382 0
-379 381 0
-377 378 0
-376 377 0
-373 374 0
-371 373 0
-369 370 0
-368 369 0
-367 370 0
-364 381 406 0
-363 364 0
-360 361 0
-359 361 0
-355 356 0
-353 354 0
-352 355 0
-347 348 393 0
-167 347 352 359 0
-346 348 0
-345 346 0
-344 346 0
-424 425 0
21 342 0
-341 348 393 0
-337 341 0
-394 408 0
177 337 338 0
-336 348 393 0
-334 335 0
-329 330 0
-412 413 0
-149 328 329 0
-327 348 393 0
-397 398 0
-325 326 0
-403 404 0
-324 325 0
-400 402 0
-321 323 0
-318 319 0
-317 318 356 0
-316 414 0
-315 316 0
-313 314 0
-312 314 0
-96 337 0
-305 306 0
76 410 0
-328 332 0
-303 305 0
-302 303 0
-301 302 0
233 300 0
-439 440 0
-298 299 0
-145 367 0
-297 298 0
-340 341 0
-195 297 424 0
221 413 0
-296 298 0
-294 295 0
-293 294 0
-292 293 315 0
-291 293 313 385 0
224 289 0
-425 426 0
-224 289 0
-338 339 0
-8 310 0
-433 434 0
-348 349 0
-396 397 0
-275 277 318 356 0
-378 379 0
-45 286 312 384 387 390 395 401 0
-283 284 0
-402 403 0
-323 324 362 0
-56 286 312 350 353 360 0
-276 277 353 0
-304 305 0
-258 263 0
-335 336 0
-385 386 0
-418 419 0
-127 365 0
-431 433 0
228 262 274 0
-269 285 0
-264 266 0
-105 257 311 0
-261 262 0
56 347 350 0
-339 340 0
-266 268 0
-228 258 271 0
-331 332 0
-260 261 273 0
-270 271 0
163 272 0
-146 260 0
-138 264 276 279 347 351 0
-326 327 0
75 267 283 317 322 0
185 292 412 0
-320 321 0
-295 296 0
-279 280 362 0
-27 291 0
146 258 260 270 0
-265 266 280 325 362 0
-411 412 0
96 286 312 340 380 0
-211 256 0
-200 269 321 0
-437 438 0
-332 333 0
-357 364 0
27 291 409 0
182 432 0
-409 410 0
-285 294 314 0
-361 362 0
220 264 281 326 363 0
-420 421 0
-267 268 320 0
167 286 312 354 360 0
-75 267 0
-416 417 0
-125 265 277 317 0
-268 269 0
-441 442 0
-404 405 0
-271 275 0
-272 273 0
-372 373 397 0
-307 308 0
-21 286 312 342 345 380 390 0
65 290 345 371 391 395 401 0
-273 274 0
-343 344 0
45 387 0
-259 261 273 320 330 339 343 358 388 399 0
-350 351 358 0
-280 281 0
-380 381 406 0
-281 282 0
138 276 0
-375 376 403 0
-277 278 0
-278 282 0
-407 408 0
67 287 0
-356 357 0
-288 293 313 368 376 403 0
-333 336 0
-366 367 0
-263 266 280 324 362 0
-387 388 399 0
-290 293 313 377 0
-182 431 0
-282 283 0
-185 292 0
-191 255 309 0
-330 331 0
-113 328 372 0
-374 379 0
-384 385 0
200 284 317 322 0
201 435 0
-388 389 0
112 286 312 382 407 0
-206 374 398 0
113 286 312 331 334 372 375 0
206 304 312 347 378 404 0
-401 402 0
-322 323 0
-220 278 319 357 0
-354 355 0
-406 407 0
-262 263 0
145 286 312 347 369 375 0
-284 285 0
-299 301 0
-426 427 0
-65 290 344 389 400 0
73 304 420 0
-351 352 0
-413 414 0
-365 366 0
-370 371 396 0
-349 383 0
-112 349 394 0
-358 359 0
125 265 0
-362 363 0
-314 315 0
-398 405 0
-319 327 0
-286 294 0
-342 343 388 0
-274 275 0
-143 288 333 0
-306 307 0
159 286 415 0
-67 287 0
143 288 335 366 0
